(set-logic HORN)
(declare-fun state (Int Int Int (Array Int Int) Int Int Int Bool Bool Bool Int Int Bool Bool Bool Int Int Bool Bool Int Int Int) Bool)
(assert (forall ((|E_5| Int) (|.y.11| Int) (|.y.12| Int) (|F_5| (Array Int Int)) (|D_5| Int) (|I_5| Int) (|A_6| Int) (|.loc.13| Bool) (|.loc.14| Bool) (|.loc.15| Bool) (|E_3| Int) (|D_3| Int) (|J_3| Bool) (|K_3| Bool) (|H_3| Bool) (|L_2| Int) (|O_2| Int) (|N_2| Bool) (|M_2| Bool) (|F_3| Int) (|J_5| Int) (|G_5| Int) (|.loc.25| Bool) (|.loc.23| Bool) (|.loc.24| Bool) (|.y.21| Int) (|.y.20| Int) (|.y.16| Int) (|.y.19| (Array Int Int)) (|.y.22| Int) (|.y.17| Int) (|.y.18| Int) (|.xtv.1| Int) (|.xtv.2| Int) (|.xtv.3| Bool) (|.xtv.4| Bool) (|.xtv.5| Bool) (|.xtv.6| Int) (|.xtv.7| Int) (|.xtv.8| Bool) (|.xtv.9| Bool) (|.xtv.10| Int) (|.xtv.11| Int) (|.xtv.12| Int)) (=> (and (and (not .loc.13) (not .loc.14)) (not .loc.15)) (state |E_5| |.y.11| |.y.12| |F_5| |D_5| |I_5| |A_6| |.loc.13| |.loc.14| |.loc.15| |E_3| |D_3| |J_3| |K_3| |H_3| |L_2| |O_2| |N_2| |M_2| |F_3| |J_5| |G_5|))))
(assert (forall ((|E_5| Int) (|.y.11| Int) (|.y.12| Int) (|F_5| (Array Int Int)) (|D_5| Int) (|I_5| Int) (|A_6| Int) (|.loc.13| Bool) (|.loc.14| Bool) (|.loc.15| Bool) (|E_3| Int) (|D_3| Int) (|J_3| Bool) (|K_3| Bool) (|H_3| Bool) (|L_2| Int) (|O_2| Int) (|N_2| Bool) (|M_2| Bool) (|F_3| Int) (|J_5| Int) (|G_5| Int) (|.loc.25| Bool) (|.loc.23| Bool) (|.loc.24| Bool) (|.y.21| Int) (|.y.20| Int) (|.y.16| Int) (|.y.19| (Array Int Int)) (|.y.22| Int) (|.y.17| Int) (|.y.18| Int) (|.xtv.1| Int) (|.xtv.2| Int) (|.xtv.3| Bool) (|.xtv.4| Bool) (|.xtv.5| Bool) (|.xtv.6| Int) (|.xtv.7| Int) (|.xtv.8| Bool) (|.xtv.9| Bool) (|.xtv.10| Int) (|.xtv.11| Int) (|.xtv.12| Int)) (=> (and (state |E_5| |.y.11| |.y.12| |F_5| |D_5| |I_5| |A_6| |.loc.13| |.loc.14| |.loc.15| |E_3| |D_3| |J_3| |K_3| |H_3| |L_2| |O_2| |N_2| |M_2| |F_3| |J_5| |G_5|) (let ((.def_32 (not .loc.13))) (let ((.def_33 (not .loc.14))) (let ((.def_42 (select F_5 G_5))) (let ((.def_46 (not (<= G_5 0)))) (let ((.def_47 (<= E_5 0))) (let ((.def_60 (not .def_47))) (let ((.def_63 (not (<= A_6 D_5)))) (let ((.def_71 (not .loc.23))) (let ((.def_74 (not .loc.24))) (let ((.def_78 (not J_3))) (let ((.def_83 (not K_3))) (let ((.def_84 (or .def_78 .def_83))) (let ((.def_87 (not M_2))) (let ((.def_88 (not N_2))) (let ((.def_89 (or .def_87 .def_88))) (let ((.def_99 (* (- 1) D_3))) (let ((.def_106 (<= A_6 I_5))) (let ((.def_109 (not .def_106))) (let ((.def_140 (not .loc.25))) (let ((.def_154 (= E_5 .y.16))) (let ((.def_157 (= F_5 .y.19))) (let ((.def_161 (= I_5 .y.22))) (let ((.def_187 (not (= (to_int (* (/ 1 16777216) (to_real E_3))) (select F_5 D_3))))) (let ((.def_190 (not (<= D_3 0)))) (let ((.def_191 (or .def_47 .def_190))) (let ((.def_193 (= I_5 .y.21))) (let ((.def_195 (= A_6 .y.22))) (let ((.def_208 (<= I_5 .y.12))) (let ((.def_211 (= D_5 .y.20))) (let ((.def_256 (<= .y.11 0))) (and (not .loc.15) (or (or (or (or (and .loc.14 (or (or (and (and (and (and .loc.13 (and (= (to_int (* (/ 1 16777216) (to_real J_5))) .def_42) (and (or .def_46 .def_47) (and (and (and (= (+ (* 16777216 I_5) (* (- 1) J_5)) 0) (= (+ E_5 (+ D_5 (* (- 1) G_5))) 0)) .def_60) .def_63)))) .loc.25) .def_71) .def_74) (and (and (= D_5 .y.21) (and (and (and (or .def_46 (or .def_47 .def_78)) (and (or (= L_2 .y.20) .def_84) (and (or (= O_2 .y.20) .def_89) (and (or .def_78 (= (+ E_5 (+ I_5 (* (- 1) G_5))) 0)) (and (or .def_78 (= J_5 .def_42)) (and (or .def_78 (= E_3 J_5)) (and (or .def_78 (= (+ (* 16777216 D_5) .def_99) 0)) (and (or .def_60 .def_78) (and (or .def_89 .def_106) (and (or (or .def_78 .def_87) .def_109) (and .def_32 (and (and .loc.24 (and .loc.23 (and (or (and N_2 M_2) (and J_3 K_3)) (and (or M_2 .def_88) (and (or J_3 .def_83) (and (or .def_78 (and J_3 M_2)) (and (or .def_78 (= F_3 (to_int (* (/ 1 16777216) (to_real D_3))))) (and (or .def_78 (= H_3 (= E_3 F_3))) (and (or .def_89 (= O_2 0)) (and (or .def_84 (= L_2 0)) (or H_3 .def_84))))))))))) .def_140)))))))))))) .def_154) .def_157)) .def_161)) (and (and (and (and (and (= (+ E_5 (+ D_5 .def_99)) 0) (and (= (+ (* 16777216 I_5) (* (- 1) E_3)) 0) (and (= (+ D_5 (* (- 1) .y.20)) (- 1)) (and .def_157 (and .def_154 (and .def_140 (and .loc.24 (and .loc.23 (and .loc.13 (and .def_60 .def_63)))))))))) .def_187) .def_191) .def_193) .def_195))) (and (and (= .y.11 .y.16) (and (and (= .y.21 0) (and .def_33 (and .def_161 (and .def_157 (and .def_140 (and .def_71 (and .loc.13 .loc.24))))))) .def_208)) .def_211)) (and (= (+ E_5 (+ I_5 .def_99)) 0) (and (= (+ (* 16777216 D_5) (* (- 1) E_3)) 0) (and (= (+ I_5 (* (- 1) .y.21)) (- 1)) (and .def_211 (and .def_195 (and .def_191 (and .def_187 (and .def_157 (and .def_154 (and .def_109 (and .def_32 (and .def_140 (and .def_71 (and .loc.24 (and .loc.14 .def_60)))))))))))))))) (and (not (<= .y.17 0)) (and (not (<= .y.21 0)) (and (= .y.18 0) (and .def_33 (and .def_154 (and .def_32 (and .def_140 (and .loc.23 .def_74))))))))) (and (= .y.11 .y.17) (and (not .def_208) (and (or .def_190 .def_256) (and (= (+ .y.11 (+ .y.12 .def_99)) 0) (and (not .def_256) (and (= (+ .y.12 (* (- 1) .y.18)) (- 1)) (and (= .y.19 (store F_5 D_3 E_3)) (and .def_211 (and .def_33 (and .def_193 (and .def_154 (and .def_140 (and .def_74 (and .loc.13 .loc.23))))))))))))))))))))))))))))))))))))))))))))))) (state |.y.16| |.y.17| |.y.18| |.y.19| |.y.20| |.y.21| |.y.22| |.loc.23| |.loc.24| |.loc.25| |.xtv.1| |.xtv.2| |.xtv.3| |.xtv.4| |.xtv.5| |.xtv.6| |.xtv.7| |.xtv.8| |.xtv.9| |.xtv.10| |.xtv.11| |.xtv.12|))))
(assert (forall ((|E_5| Int) (|.y.11| Int) (|.y.12| Int) (|F_5| (Array Int Int)) (|D_5| Int) (|I_5| Int) (|A_6| Int) (|.loc.13| Bool) (|.loc.14| Bool) (|.loc.15| Bool) (|E_3| Int) (|D_3| Int) (|J_3| Bool) (|K_3| Bool) (|H_3| Bool) (|L_2| Int) (|O_2| Int) (|N_2| Bool) (|M_2| Bool) (|F_3| Int) (|J_5| Int) (|G_5| Int) (|.loc.25| Bool) (|.loc.23| Bool) (|.loc.24| Bool) (|.y.21| Int) (|.y.20| Int) (|.y.16| Int) (|.y.19| (Array Int Int)) (|.y.22| Int) (|.y.17| Int) (|.y.18| Int) (|.xtv.1| Int) (|.xtv.2| Int) (|.xtv.3| Bool) (|.xtv.4| Bool) (|.xtv.5| Bool) (|.xtv.6| Int) (|.xtv.7| Int) (|.xtv.8| Bool) (|.xtv.9| Bool) (|.xtv.10| Int) (|.xtv.11| Int) (|.xtv.12| Int)) (=> (state |E_5| |.y.11| |.y.12| |F_5| |D_5| |I_5| |A_6| |.loc.13| |.loc.14| |.loc.15| |E_3| |D_3| |J_3| |K_3| |H_3| |L_2| |O_2| |N_2| |M_2| |F_3| |J_5| |G_5|) (not (and .loc.15 (and (not .loc.13) (not .loc.14)))))))
(check-sat)
